param n := 120;
param c := 3000
param : V : p w :=
   0	  43	 394
   1	  17	 280
   2	  75	 326
   3	  71	 370
   4	  44	 284
   5	  22	 346
   6	  42	 427
   7	  32	 259
   8	  62	 314
   9	  45	 430
  10	  96	 270
  11	  80	 300
  12	  72	 462
  13	   8	 261
  14	  59	 277
  15	  34	 356
  16	  15	 292
  17	  44	 352
  18	   6	 498
  19	  40	 250
  20	  69	 252
  21	  78	 432
  22	  98	 276
  23	  53	 292
  24	  36	 391
  25	  70	 252
  26	  55	 357
  27	  38	 397
  28	  26	 274
  29	  68	 329
  30	  31	 490
  31	  57	 251
  32	  36	 259
  33	  88	 408
  34	  94	 256
  35	  42	 336
  36	  22	 434
  37	  33	 262
  38	  96	 304
  39	  90	 482
  40	  64	 256
  41	  47	 262
  42	  12	 387
  43	 100	 275
  44	   5	 338
  45	  54	 362
  46	   8	 293
  47	   5	 345
  48	  51	 428
  49	  12	 284
  50	  72	 288
  51	  39	 408
  52	  50	 288
  53	  27	 304
  54	  43	 480
  55	  63	 250
  56	  93	 270
  57	  99	 394
  58	   7	 276
  59	  93	 330
  60	  37	 361
  61	  20	 253
  62	  23	 386
  63	  86	 375
  64	  81	 281
  65	  76	 344
  66	  59	 478
  67	  73	 251
  68	  79	 271
  69	  73	 478
  70	  69	 250
  71	  22	 272
  72	  11	 356
  73	   4	 276
  74	  65	 368
  75	  30	 387
  76	  74	 269
  77	  32	 344
  78	  14	 486
  79	  16	 252
  80	  39	 262
  81	  40	 414
  82	  54	 263
  83	  15	 323
  84	  52	 410
  85	  40	 250
  86	  96	 340
  87	  96	 400
  88	  59	 295
  89	  92	 305
  90	  64	 382
  91	  56	 282
  92	  52	 336
  93	  40	 434
  94	  77	 269
  95	  63	 297
  96	  94	 395
  97	  64	 278
  98	  49	 327
  99	  50	 353
 100	  36	 281
 101	  90	 366
 102	  93	 419
 103	  86	 285
 104	  28	 296
 105	  20	 362
 106	  31	 314
 107	  34	 324
 108	  52	 495
 109	  12	 251
 110	  52	 254
 111	  38	 499
 112	  37	 250
 113	   4	 251
 114	  49	 364
 115	  38	 289
 116	  24	 347
 117	  26	 498
 118	  37	 250
 119	  77	 252
;

set E :=
   0	  16
   0	  28
   0	  38
   0	  46
   0	  47
   0	  54
   0	  73
   0	  89
   0	  91
   0	  99
   0	 101
   0	 108
   0	 112
   0	 115
   1	   2
   1	   4
   1	   9
   1	  12
   1	  20
   1	  21
   1	  22
   1	  29
   1	  39
   1	  42
   1	  45
   1	  49
   1	  55
   1	  65
   1	  67
   1	  68
   1	  73
   1	  74
   1	  76
   1	  82
   1	  89
   1	  95
   1	  96
   1	  97
   1	  98
   1	 100
   1	 108
   1	 109
   1	 117
   2	   3
   2	   4
   2	   6
   2	  13
   2	  14
   2	  15
   2	  16
   2	  27
   2	  33
   2	  36
   2	  40
   2	  43
   2	  57
   2	  60
   2	  68
   2	  70
   2	  74
   2	  75
   2	  77
   2	  80
   2	  91
   2	  93
   2	  95
   2	 100
   3	   5
   3	   6
   3	   7
   3	  19
   3	  21
   3	  22
   3	  32
   3	  33
   3	  35
   3	  43
   3	  50
   3	  55
   3	  59
   3	  62
   3	  74
   3	  78
   3	  82
   3	  85
   3	  88
   3	  92
   3	  94
   3	 103
   4	   6
   4	  12
   4	  15
   4	  16
   4	  20
   4	  21
   4	  22
   4	  28
   4	  30
   4	  45
   4	  46
   4	  50
   4	  57
   4	  58
   4	  69
   4	  77
   4	  88
   4	 102
   4	 113
   4	 115
   4	 117
   5	   7
   5	   8
   5	  11
   5	  12
   5	  13
   5	  14
   5	  16
   5	  18
   5	  27
   5	  32
   5	  39
   5	  45
   5	  51
   5	  54
   5	  59
   5	  63
   5	  84
   5	  92
   5	  95
   5	 112
   5	 119
   6	  13
   6	  16
   6	  20
   6	  37
   6	  40
   6	  44
   6	  48
   6	  50
   6	  58
   6	  59
   6	  61
   6	  65
   6	  72
   6	  77
   6	  85
   6	  96
   6	  97
   6	 109
   6	 110
   6	 117
   7	  10
   7	  16
   7	  17
   7	  24
   7	  26
   7	  32
   7	  33
   7	  37
   7	  38
   7	  40
   7	  45
   7	  48
   7	  59
   7	  61
   7	  67
   7	  88
   7	  89
   7	  93
   7	  96
   7	  99
   7	 109
   7	 116
   8	   9
   8	  14
   8	  15
   8	  18
   8	  19
   8	  21
   8	  23
   8	  29
   8	  30
   8	  33
   8	  41
   8	  43
   8	  45
   8	  48
   8	  53
   8	  57
   8	  58
   8	  63
   8	  65
   8	  66
   8	  79
   8	  97
   8	 100
   8	 103
   8	 104
   8	 107
   8	 110
   8	 112
   8	 115
   8	 117
   8	 118
   9	  15
   9	  21
   9	  22
   9	  24
   9	  32
   9	  43
   9	  48
   9	  54
   9	  55
   9	  63
   9	  78
   9	  89
   9	  90
   9	  98
   9	 103
   9	 106
   9	 108
   9	 115
   9	 118
  10	  15
  10	  16
  10	  22
  10	  24
  10	  25
  10	  28
  10	  30
  10	  33
  10	  43
  10	  44
  10	  48
  10	  51
  10	  54
  10	  68
  10	  73
  10	  80
  10	  86
  10	  94
  10	  96
  10	 101
  10	 102
  10	 117
  11	  12
  11	  17
  11	  19
  11	  32
  11	  39
  11	  42
  11	  43
  11	  44
  11	  54
  11	  55
  11	  56
  11	  57
  11	  64
  11	  77
  11	  83
  11	  85
  11	  86
  11	  92
  11	 103
  11	 105
  11	 109
  11	 115
  11	 117
  12	  22
  12	  31
  12	  44
  12	  46
  12	  55
  12	  65
  12	  69
  12	  73
  12	  77
  12	  82
  12	  85
  12	  86
  12	  87
  12	  94
  12	  96
  12	  98
  12	 104
  12	 108
  12	 112
  12	 114
  13	  17
  13	  21
  13	  25
  13	  29
  13	  36
  13	  38
  13	  41
  13	  44
  13	  48
  13	  49
  13	  51
  13	  52
  13	  57
  13	  61
  13	  67
  13	  69
  13	  71
  13	  73
  13	  76
  13	  82
  13	  83
  13	  87
  13	  90
  13	  94
  13	  95
  13	  97
  13	 103
  13	 104
  13	 113
  13	 116
  14	  16
  14	  18
  14	  30
  14	  31
  14	  33
  14	  35
  14	  37
  14	  46
  14	  52
  14	  54
  14	  56
  14	  62
  14	  75
  14	  81
  14	  95
  14	 109
  14	 111
  14	 112
  14	 113
  14	 117
  14	 118
  15	  16
  15	  20
  15	  21
  15	  22
  15	  23
  15	  30
  15	  32
  15	  34
  15	  35
  15	  36
  15	  38
  15	  39
  15	  41
  15	  43
  15	  50
  15	  51
  15	  52
  15	  56
  15	  57
  15	  63
  15	  73
  15	  74
  15	  75
  15	  87
  15	  93
  15	 107
  15	 118
  16	  23
  16	  32
  16	  34
  16	  42
  16	  43
  16	  45
  16	  47
  16	  48
  16	  49
  16	  54
  16	  56
  16	  62
  16	  69
  16	  72
  16	  74
  16	  76
  16	  77
  16	  78
  16	  81
  16	  89
  16	  91
  16	  95
  16	  98
  16	 103
  16	 109
  16	 114
  17	  18
  17	  21
  17	  31
  17	  33
  17	  43
  17	  53
  17	  54
  17	  64
  17	  71
  17	  75
  17	  81
  17	  91
  17	  94
  17	  97
  17	  99
  17	 111
  17	 113
  17	 115
  17	 117
  18	  19
  18	  22
  18	  26
  18	  34
  18	  39
  18	  51
  18	  59
  18	  60
  18	  65
  18	  74
  18	  78
  18	  79
  18	  84
  18	  85
  18	  86
  18	  90
  18	 102
  18	 109
  18	 110
  18	 115
  18	 116
  19	  24
  19	  31
  19	  33
  19	  36
  19	  37
  19	  44
  19	  49
  19	  51
  19	  52
  19	  56
  19	  57
  19	  63
  19	  65
  19	  66
  19	  82
  19	  91
  19	  93
  19	  94
  19	 101
  19	 102
  19	 111
  19	 117
  19	 118
  20	  22
  20	  30
  20	  43
  20	  44
  20	  47
  20	  48
  20	  58
  20	  63
  20	  64
  20	  70
  20	  74
  20	  84
  20	  87
  20	 112
  21	  29
  21	  30
  21	  32
  21	  41
  21	  46
  21	  47
  21	  63
  21	  70
  21	  72
  21	  74
  21	  78
  21	  91
  21	  92
  21	  94
  21	  97
  21	 101
  21	 104
  21	 112
  21	 114
  21	 116
  22	  26
  22	  31
  22	  33
  22	  34
  22	  44
  22	  51
  22	  55
  22	  59
  22	  61
  22	  63
  22	  69
  22	  74
  22	  79
  22	  81
  22	  82
  22	  83
  22	  91
  22	  95
  22	  97
  22	  99
  22	 107
  22	 109
  22	 115
  22	 116
  22	 119
  23	  24
  23	  27
  23	  30
  23	  32
  23	  56
  23	  62
  23	  65
  23	  70
  23	  74
  23	  76
  23	  83
  23	  88
  23	  91
  23	  98
  23	  99
  23	 110
  23	 115
  24	  36
  24	  46
  24	  65
  24	  67
  24	  68
  24	  69
  24	  71
  24	  81
  24	  86
  24	  97
  24	 110
  25	  27
  25	  30
  25	  31
  25	  34
  25	  36
  25	  40
  25	  48
  25	  50
  25	  53
  25	  54
  25	  62
  25	  63
  25	  65
  25	  66
  25	  68
  25	  70
  25	  72
  25	  76
  25	  80
  25	  88
  25	  89
  25	  92
  25	  93
  25	 105
  25	 107
  25	 110
  25	 111
  25	 114
  25	 119
  26	  33
  26	  50
  26	  55
  26	  61
  26	  76
  26	  77
  26	  78
  26	  79
  26	  82
  26	  87
  26	 117
  27	  29
  27	  32
  27	  37
  27	  42
  27	  56
  27	  61
  27	  63
  27	  66
  27	  67
  27	  78
  27	  80
  27	  99
  27	 104
  27	 112
  27	 113
  27	 114
  27	 115
  28	  35
  28	  50
  28	  55
  28	  73
  28	  74
  28	  78
  28	  81
  28	  89
  28	  90
  28	  96
  28	 105
  28	 108
  28	 109
  28	 117
  29	  51
  29	  52
  29	  57
  29	  59
  29	  62
  29	  67
  29	  68
  29	  71
  29	  79
  29	  81
  29	  89
  29	  92
  29	  95
  29	  99
  29	 101
  29	 104
  29	 109
  29	 115
  29	 117
  30	  43
  30	  47
  30	  59
  30	  61
  30	  71
  30	  74
  30	  76
  30	  79
  30	  80
  30	  82
  30	  85
  30	  87
  30	  90
  30	  93
  30	  94
  30	 104
  30	 106
  30	 108
  30	 109
  30	 110
  30	 115
  30	 116
  31	  33
  31	  39
  31	  42
  31	  44
  31	  45
  31	  55
  31	  77
  31	  79
  31	  84
  31	  87
  31	  90
  31	  93
  31	  95
  31	 104
  31	 109
  31	 115
  32	  43
  32	  74
  32	  75
  32	  87
  32	 103
  32	 106
  32	 107
  32	 116
  33	  34
  33	  36
  33	  38
  33	  45
  33	  57
  33	  60
  33	  61
  33	  63
  33	  78
  33	  85
  33	  86
  33	  90
  33	  91
  33	  96
  33	  97
  33	 119
  34	  45
  34	  50
  34	  52
  34	  53
  34	  54
  34	  56
  34	  58
  34	  59
  34	  60
  34	  63
  34	  68
  34	  74
  34	  88
  34	  92
  34	 105
  34	 106
  34	 119
  35	  36
  35	  37
  35	  38
  35	  41
  35	  42
  35	  43
  35	  48
  35	  50
  35	  54
  35	  61
  35	  63
  35	  64
  35	  73
  35	  74
  35	  79
  35	  83
  35	  85
  35	  92
  35	  95
  35	  96
  35	  99
  35	 104
  35	 105
  35	 115
  35	 117
  36	  45
  36	  49
  36	  58
  36	  61
  36	  64
  36	  65
  36	  71
  36	  74
  36	  86
  36	  87
  36	  91
  36	  92
  36	  99
  36	 100
  36	 105
  36	 106
  36	 118
  37	  38
  37	  39
  37	  43
  37	  45
  37	  52
  37	  54
  37	  57
  37	  62
  37	  70
  37	  71
  37	  85
  37	  95
  37	  97
  37	 101
  37	 108
  37	 118
  38	  39
  38	  54
  38	  55
  38	  57
  38	  61
  38	  74
  38	  77
  38	  83
  38	  89
  38	  97
  38	  99
  38	 101
  38	 106
  38	 112
  39	  40
  39	  47
  39	  48
  39	  49
  39	  61
  39	  62
  39	  63
  39	  66
  39	  74
  39	  78
  39	  79
  39	  80
  39	  87
  39	  88
  39	  94
  39	  97
  39	 106
  39	 107
  39	 115
  39	 116
  40	  51
  40	  56
  40	  58
  40	  60
  40	  70
  40	  72
  40	  74
  40	  78
  40	  80
  40	  90
  40	 110
  40	 113
  40	 114
  40	 115
  40	 116
  41	  48
  41	  50
  41	  54
  41	  58
  41	  70
  41	  73
  41	  76
  41	  78
  41	  84
  41	  91
  41	  98
  41	 111
  41	 112
  42	  52
  42	  57
  42	  59
  42	  62
  42	  65
  42	  66
  42	  71
  42	  72
  42	  87
  42	  93
  42	 101
  42	 104
  42	 105
  42	 112
  42	 117
  43	  47
  43	  65
  43	  68
  43	  69
  43	  70
  43	  78
  43	  81
  43	  82
  43	  86
  43	  90
  43	  94
  43	  99
  43	 102
  43	 109
  44	  52
  44	  55
  44	  58
  44	  61
  44	  64
  44	  69
  44	  71
  44	  76
  44	  78
  44	  81
  44	  86
  44	  87
  44	  89
  44	  94
  44	  95
  44	  97
  44	 108
  44	 119
  45	  50
  45	  61
  45	  66
  45	  68
  45	  70
  45	  71
  45	  76
  45	  82
  45	  88
  45	  91
  45	  92
  45	 100
  45	 109
  45	 114
  45	 115
  45	 116
  46	  50
  46	  52
  46	  57
  46	  65
  46	  87
  46	 104
  46	 105
  46	 118
  46	 119
  47	  53
  47	  65
  47	  71
  47	  78
  47	  79
  47	  80
  47	  89
  47	  90
  47	  98
  47	  99
  47	 101
  47	 103
  47	 111
  47	 112
  47	 117
  48	  53
  48	  57
  48	  64
  48	  66
  48	  67
  48	  72
  48	  89
  48	  90
  48	  94
  48	  95
  48	 100
  48	 106
  48	 107
  48	 108
  48	 111
  48	 119
  49	  50
  49	  61
  49	  62
  49	  72
  49	  80
  49	  85
  49	  87
  49	  90
  49	  94
  49	  99
  49	 105
  49	 107
  49	 114
  50	  59
  50	  62
  50	  63
  50	  71
  50	  72
  50	  78
  50	  84
  50	  86
  50	  90
  50	  95
  50	 102
  50	 109
  50	 112
  50	 117
  50	 119
  51	  61
  51	  62
  51	  66
  51	  77
  51	  90
  51	  95
  51	  96
  51	  99
  51	 103
  51	 104
  51	 106
  51	 108
  51	 109
  51	 111
  52	  54
  52	  60
  52	  61
  52	  73
  52	  75
  52	  76
  52	  84
  52	  85
  52	  97
  52	 106
  52	 107
  52	 108
  52	 109
  52	 114
  53	  68
  53	  69
  53	  72
  53	  81
  53	  82
  53	  84
  53	  93
  53	  98
  54	  56
  54	  60
  54	  62
  54	  67
  54	  71
  54	  79
  54	  80
  54	  86
  54	  90
  54	  92
  54	  94
  54	  99
  54	 101
  54	 102
  54	 106
  54	 116
  54	 118
  55	  58
  55	  61
  55	  63
  55	  66
  55	  69
  55	  74
  55	  79
  55	  84
  55	  94
  55	  97
  55	 106
  55	 112
  55	 115
  56	  57
  56	  66
  56	  67
  56	  80
  56	  84
  56	  85
  56	  89
  56	  92
  56	  95
  56	 104
  56	 118
  57	  61
  57	  62
  57	  67
  57	  72
  57	  77
  57	  78
  57	  79
  57	  82
  57	  87
  57	  88
  57	  92
  57	  94
  57	  96
  57	  97
  57	  98
  57	 111
  57	 113
  57	 117
  57	 118
  58	  60
  58	  68
  58	  70
  58	  76
  58	  84
  58	  89
  58	  90
  58	  92
  58	 100
  58	 102
  58	 104
  58	 112
  58	 116
  59	  63
  59	  64
  59	  69
  59	  70
  59	  73
  59	  76
  59	  89
  59	  91
  59	 103
  59	 105
  59	 115
  59	 119
  60	  64
  60	  71
  60	  78
  60	  80
  60	  91
  60	  97
  60	 100
  60	 104
  60	 115
  61	  64
  61	  72
  61	  74
  61	  85
  61	  86
  61	  97
  61	 101
  61	 102
  61	 108
  61	 110
  61	 115
  61	 116
  61	 118
  62	  64
  62	  65
  62	  68
  62	  77
  62	  81
  62	  83
  62	  85
  62	  90
  62	  92
  62	  94
  62	  96
  62	  99
  62	 103
  62	 104
  62	 112
  62	 116
  62	 118
  63	  71
  63	  76
  63	  79
  63	  82
  63	  86
  63	  94
  63	 105
  63	 109
  63	 112
  64	  72
  64	  79
  64	  83
  64	 109
  64	 111
  64	 113
  64	 114
  65	  74
  65	  77
  65	  82
  65	  85
  65	  87
  65	  98
  65	 104
  65	 105
  65	 106
  65	 109
  65	 117
  66	  68
  66	  81
  66	  84
  66	  87
  66	  89
  66	  91
  66	  98
  66	 104
  66	 109
  66	 111
  67	  68
  67	  73
  67	  79
  67	  85
  67	  90
  67	  95
  67	  97
  67	 101
  67	 105
  67	 107
  67	 111
  67	 117
  67	 118
  68	  69
  68	  78
  68	  83
  68	  90
  68	  92
  68	  95
  68	  96
  68	  97
  68	  98
  68	 101
  68	 106
  68	 117
  68	 119
  69	  72
  69	  76
  69	  92
  69	 105
  69	 106
  69	 109
  69	 114
  69	 115
  69	 117
  70	  73
  70	  86
  70	  87
  70	  88
  70	  94
  70	  95
  70	 105
  70	 110
  70	 117
  71	  75
  71	  77
  71	  79
  71	  82
  71	  86
  71	  87
  71	  94
  71	 108
  71	 115
  72	  77
  72	  79
  72	  81
  72	  88
  72	  89
  72	  92
  72	  95
  72	 100
  72	 102
  72	 107
  72	 108
  72	 115
  72	 116
  73	  79
  73	  84
  73	  85
  73	  88
  73	  98
  73	 102
  73	 108
  73	 109
  73	 115
  73	 116
  73	 119
  74	  93
  74	  95
  74	 101
  74	 104
  74	 105
  74	 107
  74	 114
  74	 118
  75	  77
  75	  87
  75	  88
  75	  97
  75	 102
  75	 109
  75	 113
  76	  83
  76	  84
  76	  88
  76	 105
  76	 111
  76	 112
  76	 116
  77	  81
  77	 102
  77	 112
  77	 117
  78	  80
  78	  84
  78	  90
  78	  91
  78	  99
  78	 101
  78	 108
  78	 110
  78	 112
  79	  87
  79	  96
  79	 103
  79	 107
  79	 109
  79	 114
  79	 119
  80	  85
  80	  97
  80	 105
  80	 110
  80	 116
  80	 117
  81	  88
  81	  89
  81	  90
  81	  92
  81	  93
  81	 106
  82	  84
  82	  86
  82	  87
  82	  89
  82	  94
  82	  98
  82	 103
  82	 106
  82	 107
  82	 113
  82	 118
  83	  90
  83	 100
  83	 105
  83	 114
  84	  85
  84	  87
  84	  88
  84	  90
  84	 107
  84	 116
  85	  90
  85	  91
  85	  95
  85	 103
  85	 111
  85	 112
  85	 114
  86	  89
  86	  91
  86	  99
  86	 106
  86	 112
  86	 114
  87	  88
  87	  91
  87	  94
  87	 100
  87	 102
  87	 105
  87	 109
  87	 112
  87	 116
  87	 119
  88	  89
  88	  92
  88	  93
  88	  96
  88	  98
  88	  99
  88	 102
  88	 105
  88	 110
  89	  97
  89	 101
  89	 104
  89	 106
  89	 113
  89	 115
  89	 117
  89	 118
  89	 119
  90	  95
  90	 101
  90	 105
  90	 107
  90	 117
  90	 119
  91	  95
  91	 100
  91	 107
  91	 112
  91	 115
  91	 119
  92	  94
  92	 109
  92	 113
  92	 117
  93	  94
  93	  95
  93	 100
  93	 101
  93	 104
  93	 108
  93	 115
  93	 116
  93	 117
  94	  96
  94	  99
  94	 103
  94	 104
  94	 106
  94	 113
  94	 116
  94	 117
  95	  96
  95	  98
  95	 102
  95	 119
  96	  99
  96	 107
  96	 114
  97	 102
  97	 107
  97	 110
  97	 113
  97	 114
  97	 119
  98	 100
  98	 104
  98	 118
  99	 101
  99	 106
  99	 112
  99	 118
 100	 102
 100	 107
 100	 112
 100	 119
 101	 109
 101	 112
 101	 113
 102	 103
 102	 105
 102	 111
 103	 106
 103	 109
 103	 115
 103	 116
 104	 106
 104	 118
 105	 108
 105	 112
 105	 116
 106	 109
 106	 110
 106	 116
 107	 114
 107	 117
 108	 112
 108	 114
 108	 117
 108	 118
 112	 113
 112	 114
 112	 115
 112	 117
 115	 116
 116	 117
 116	 118
;
